n=20;
t=24;
profit=[10 10 3 8 2 10 8 5 7 10 7 5 10 2 3 2 2 6 3 2];
length=[3 4 1 4 2 3 4 2 1 2 2 3 2 2 5 5 1 3 4 2];
min_deliver=[19 7 18 21 8 19 20 21 16 19 15 18 2 16 21 11 4 18 17 13];
max_deliver=[21 11 22 24 10 20 24 21 20 19 20 20 5 21 23 16 4 21 20 14];
surface=[3 3 1 2 3 4 1 5 4 2 1 2 1 2 1 5 1 2 4 2];
surface_capacity=17;
